# 3D simple cubic lattice simulation
dimension   2
boundary    f f p
region      box block -3.000000000 20.0000000 -2.00000000 2.00000000 -0.00110000 0.00110000 

units		   lj
atom_style	bond
atom_modify sort 0 1.
bond_style  harmonic
pair_style  lj/cut 3.5

comm_modify mode single cutoff 3.0

# geometry
read_data	ph_1D_fix_d=3.0.pos

pair_coeff  * * 0.0 1.0
pair_coeff  1 2 0.5 0.5
group type1_chain type 1 
group type2_chain type 2

#
neighbor 0.5 nsq
neigh_modify delay 0 check no

#Langevin random seed
variable r equal 571101

#Langevin Temperature
variable t equal 0.005

# Langevin Damping variable
variable d equal 0.5

#dump variables
variable freq equal 25
variable ts equal 0.001
variable runs equal 30000


# time step
timestep  ${ts}



# Create velocities and equilibrate 
compute   MyTemp all temp/partial 1 0 0
velocity  type1_chain create $t 28711 mom yes rot yes dist gaussian temp MyTemp
velocity  all set NULL 0.0 0.0 units box
#
fix        1 all langevin $t $t $d $r
fix        harmonic_wall all wall/region box harmonic 0.5 1.0 1.7
fix_modify 1 temp MyTemp
fix        2 all setforce NULL 0. 0.
fix        3 all nve
fix        4 all phonon 10 50000 500000 map.in phonon sysdim 1
fix_modify 4 temp MyTemp


#Computes
compute      myKE type1_chain ke
compute      myKE2 type2_chain ke




#                    1    2    3  4
thermo_style  custom step c_myKE c_myKE2 etotal
thermo_modify temp MyTemp
thermo   50

dump    	4 all atom 50000 dump_LJ_ANA.lammpstrj 
dump            xyz2_dump all xyz ${freq} [25.07]dump3__ph_1D_fix_d=3.0_r=${runs}_ts=${ts}_f=${freq}.xyz

run 		${runs}
