units metal

### Listing of units in SI, for reference ####
# atomic mass is 3.33 x 10^-26 kg = 20.0466 grams/mole
# lattice constant is 4.5 x 10^-10 m = 4.5 Angstroms
# Hamaker's constant, used as LJ minimum is 10^-19 J = 1 eV
# Position of LJ minimum is suggested to be 1.12 x lattice spacing, perhaps make lattice constant the same as LJ minimum
# Spring constant is 292.7 N/m = 18.294 eV/Angstrom^2
##############################################

#physical constants
variable a equal 4.5             #atomic spacing
variable m equal 20.046          #atomic mass
variable k equal 18.294          #spring constant
variable eps equal 1.0           #LJ minimum energy (Hamaker's constant) <- to be varied
variable x_lo equal -3.00000000*$a
variable x_hi equal 244
variable y_lo equal -3.000*$a
variable y_hi equal 121.5
variable z_lo equal -0.9*$a
variable z_hi equal 0.1*$a

variable comm_val equal 3.5*$a
variable lj_cut equal 5*$a

#lattice setup
dimension 2
boundary  f f p
region    box block ${x_lo} ${x_hi} ${y_lo} ${y_hi} ${z_lo} ${z_hi}

atom_style  bond
atom_modify sort 0 1.
bond_style  harmonic
pair_style  lj/cut ${lj_cut}

comm_modify mode single cutoff ${comm_val}

# geometry
read_data	16-08_12.20_NORMAL_2D.pos

variable p_coeff2 equal 0.5

pair_coeff  * * 0.0 1.0
pair_coeff  1 2 ${eps} ${a} #right now the LJ units are going by lattice spacing rather than sigma
group type1_chain type 1 
group type2_chain type 2

#
neighbor 0.5 nsq
neigh_modify delay 0 check no

#Langevin random seed
variable r equal 571101

#Langevin Temperature
variable t equal 300.0 

# Langevin Damping variable
variable d equal 0.0001

#dump variables
variable freq equal 50
variable ts equal 0.000001
variable runs equal 100000


# time step
timestep  ${ts}


### First equilibration

compute   first_temp all temp/partial 1 1 0
fix       first_nvt  all nvt  temp 300 300 $d

thermo_style custom step temp etotal
thermo    1000
run       10000

velocity all scale 300
unfix     first_nvt

### Langevin run 

compute   MyTemp1 type1_chain temp/partial 1 1 0
compute   MyTemp2 type2_chain temp/partial 1 1 0

#velocity  type1_chain create $t 28711 mom yes rot yes dist gaussian temp MyTemp1
#velocity  type2_chain create 10.0 934839 mom yes rot yes dist gaussian temp MyTemp2
#velocity  all set NULL NULL 0.0 units box
velocity  type1_chain zero linear
velocity  type2_chain zero linear
#
fix        1 type1_chain langevin $t $t $d $r  tally yes #zero yes
fix        1_1 type2_chain langevin 10.0 10.0 $d $r  tally yes #zero yes
#fix        harmonic_wall all wall/region box harmonic 600 1.0 1.7
fix_modify 1 temp MyTemp1
fix_modify 1_1 temp MyTemp2
fix_modify 1 energy yes
fix_modify 1_1 energy yes
fix        2 all setforce NULL NULL 0.

#fix        solid_fix all spring/self 1000


fix        3 all nve
#fix        4 all phonon 10 50000 500000 map.in phonon sysdim 1
#fix_modify 4 temp MyTemp


#Computes
compute      myKE type1_chain ke
compute      KE_1 type1_chain ke/atom
compute      chain1_temp type1_chain temp
compute      Stress_1 type1_chain stress/atom chain1_temp pair
compute      PE_1 type1_chain pe/atom pair



compute      myKE2 type2_chain ke
compute      KE_2  type2_chain ke/atom
compute      chain2_temp type2_chain temp
compute      Stress_2 type2_chain stress/atom chain2_temp pair
compute      PE_2 type2_chain pe/atom pair

compute      myPE  all pe


compute      chain1_flux type1_chain heat/flux KE_1 PE_1 Stress_1
variable     Jx equal c_chain1_flux[1]/11664          #11664 is the volume taken up by type 1 atoms in Angstrom^3
variable     Jy equal c_chain1_flux[2]/11664


compute      chain2_flux type2_chain heat/flux KE_2 PE_2 Stress_2
variable     Jx2 equal c_chain2_flux[1]/11664        
variable     Jy2 equal c_chain2_flux[2]/11664



#                    1    2    3  4
thermo_style  custom step c_MyTemp1 c_MyTemp2 v_Jx v_Jy v_Jx2 v_Jy2 f_1 f_1_1 etotal
thermo   1000

dump    	4 all atom 50000 dump_LJ_ANA.lammpstrj 
dump            xyz2_dump all xyz ${freq} [16.08]dump_ph_2D_METAL_Kappa-style-eq_d=3.0_r=${runs}_ts=${ts}_f=${freq}.xyz

run 		${runs}
